NAME: ACTUAL_TOURS/amz1363
TYPE: TOUR
COMMENT: RouteID_8fdcc6c9-c5a5-4cdf-a7e7-675ba1acb230
DIMENSION: 183
TOUR_SECTION
125
89
108
91
68
95
170
111
79
50
161
165
84
1
65
163
63
19
72
132
22
3
83
51
126
156
140
172
58
103
53
157
168
183
102
93
155
77
145
138
21
87
113
80
182
152
99
43
124
137
179
12
10
104
96
119
13
74
130
127
9
160
180
75
171
115
17
78
121
70
164
27
88
47
131
117
178
139
46
123
20
143
98
146
149
30
57
167
159
175
60
154
34
158
150
7
38
39
135
11
37
26
106
42
45
169
173
48
41
32
109
18
100
2
15
44
174
176
36
107
25
177
148
23
55
67
122
144
114
85
128
71
112
133
52
61
5
120
116
101
73
16
49
90
33
6
62
141
28
31
8
151
147
129
181
64
76
162
134
136
24
35
142
81
69
14
92
54
59
86
82
56
118
105
110
153
29
94
97
40
66
166
4
-1
EOF
